p cnf 200 1110
-101 16 0
-101 5 0
-101 74 0
-101 -90 0
-101 -30 0
-101 29 0
-101 -24 0
-101 -1 0
-101 -70 0
-101 -28 0
101 -16 -5 -74 90 30 -29 24 1 70 28 0
-102 -31 0
-102 -33 0
-102 30 0
-102 26 0
-102 -56 0
-102 85 0
-102 86 0
-102 19 0
-102 57 0
-102 40 0
102 31 33 -30 -26 56 -85 -86 -19 -57 -40 0
-103 25 0
-103 -94 0
-103 -41 0
-103 19 0
-103 97 0
-103 -98 0
-103 74 0
-103 -26 0
-103 -51 0
-103 -52 0
103 -25 94 41 -19 -97 98 -74 26 51 52 0
-104 -73 0
-104 -20 0
-104 -4 0
-104 -66 0
-104 77 0
-104 -30 0
-104 -96 0
-104 -60 0
-104 71 0
-104 72 0
104 73 20 4 66 -77 30 96 60 -71 -72 0
-105 -90 0
-105 -51 0
-105 -7 0
-105 -43 0
-105 86 0
-105 88 0
-105 -9 0
-105 -71 0
-105 73 0
-105 -69 0
105 90 51 7 43 -86 -88 9 71 -73 69 0
-106 -84 0
-106 53 0
-106 20 0
-106 -68 0
-106 -6 0
-106 -38 0
-106 96 0
-106 -34 0
-106 -9 0
-106 -22 0
106 84 -53 -20 68 6 38 -96 34 9 22 0
-107 47 0
-107 93 0
-107 91 0
-107 -22 0
-107 -57 0
-107 9 0
-107 3 0
-107 38 0
-107 -27 0
-107 -10 0
107 -47 -93 -91 22 57 -9 -3 -38 27 10 0
-108 -21 0
-108 6 0
-108 36 0
-108 -55 0
-108 26 0
-108 73 0
-108 98 0
-108 96 0
-108 29 0
-108 -8 0
108 21 -6 -36 55 -26 -73 -98 -96 -29 8 0
-109 85 0
-109 -61 0
-109 -38 0
-109 -23 0
-109 -83 0
-109 41 0
-109 -6 0
-109 29 0
-109 -32 0
-109 -100 0
109 -85 61 38 23 83 -41 6 -29 32 100 0
-110 -60 0
-110 98 0
-110 -24 0
-110 -4 0
-110 53 0
-110 -99 0
-110 43 0
-110 18 0
-110 100 0
-110 90 0
110 60 -98 24 4 -53 99 -43 -18 -100 -90 0
101 102 103 104 105 106 107 108 109 110 0
-111 3 0
-111 87 0
-111 -41 0
-111 -22 0
-111 33 0
-111 -79 0
-111 -1 0
-111 -72 0
-111 -100 0
-111 -27 0
111 -3 -87 41 22 -33 79 1 72 100 27 0
-112 -47 0
-112 12 0
-112 2 0
-112 20 0
-112 82 0
-112 -100 0
-112 -22 0
-112 8 0
-112 -46 0
-112 -3 0
112 47 -12 -2 -20 -82 100 22 -8 46 3 0
-113 -92 0
-113 68 0
-113 95 0
-113 15 0
-113 -59 0
-113 -14 0
-113 30 0
-113 -56 0
-113 -85 0
-113 -3 0
113 92 -68 -95 -15 59 14 -30 56 85 3 0
-114 -18 0
-114 -22 0
-114 10 0
-114 74 0
-114 84 0
-114 11 0
-114 -9 0
-114 51 0
-114 -43 0
-114 -50 0
114 18 22 -10 -74 -84 -11 9 -51 43 50 0
-115 -28 0
-115 -52 0
-115 29 0
-115 -44 0
-115 -8 0
-115 -27 0
-115 31 0
-115 42 0
-115 78 0
-115 33 0
115 28 52 -29 44 8 27 -31 -42 -78 -33 0
-116 11 0
-116 52 0
-116 43 0
-116 4 0
-116 -61 0
-116 75 0
-116 -64 0
-116 62 0
-116 -41 0
-116 99 0
116 -11 -52 -43 -4 61 -75 64 -62 41 -99 0
-117 26 0
-117 11 0
-117 -71 0
-117 -86 0
-117 -59 0
-117 58 0
-117 -7 0
-117 95 0
-117 30 0
-117 28 0
117 -26 -11 71 86 59 -58 7 -95 -30 -28 0
-118 -41 0
-118 -100 0
-118 46 0
-118 47 0
-118 25 0
-118 -91 0
-118 15 0
-118 -28 0
-118 -23 0
-118 48 0
118 41 100 -46 -47 -25 91 -15 28 23 -48 0
-119 -96 0
-119 93 0
-119 60 0
-119 -28 0
-119 46 0
-119 -59 0
-119 78 0
-119 99 0
-119 -23 0
-119 80 0
119 96 -93 -60 28 -46 59 -78 -99 23 -80 0
-120 -36 0
-120 -87 0
-120 -68 0
-120 -1 0
-120 95 0
-120 2 0
-120 81 0
-120 13 0
-120 -97 0
-120 -24 0
120 36 87 68 1 -95 -2 -81 -13 97 24 0
111 112 113 114 115 116 117 118 119 120 0
-121 80 0
-121 70 0
-121 -41 0
-121 -23 0
-121 29 0
-121 42 0
-121 -50 0
-121 -74 0
-121 -83 0
-121 88 0
121 -80 -70 41 23 -29 -42 50 74 83 -88 0
-122 -45 0
-122 69 0
-122 63 0
-122 67 0
-122 -38 0
-122 -86 0
-122 70 0
-122 -100 0
-122 53 0
-122 -81 0
122 45 -69 -63 -67 38 86 -70 100 -53 81 0
-123 34 0
-123 -93 0
-123 -79 0
-123 92 0
-123 4 0
-123 63 0
-123 -35 0
-123 64 0
-123 3 0
-123 60 0
123 -34 93 79 -92 -4 -63 35 -64 -3 -60 0
-124 -1 0
-124 67 0
-124 -79 0
-124 -73 0
-124 -6 0
-124 -56 0
-124 31 0
-124 -45 0
-124 65 0
-124 64 0
124 1 -67 79 73 6 56 -31 45 -65 -64 0
-125 54 0
-125 -72 0
-125 -66 0
-125 -3 0
-125 67 0
-125 -29 0
-125 11 0
-125 -43 0
-125 88 0
-125 28 0
125 -54 72 66 3 -67 29 -11 43 -88 -28 0
-126 -38 0
-126 -80 0
-126 45 0
-126 79 0
-126 48 0
-126 17 0
-126 -41 0
-126 -68 0
-126 -64 0
-126 5 0
126 38 80 -45 -79 -48 -17 41 68 64 -5 0
-127 -100 0
-127 41 0
-127 16 0
-127 -79 0
-127 -55 0
-127 -91 0
-127 -18 0
-127 -77 0
-127 -47 0
-127 43 0
127 100 -41 -16 79 55 91 18 77 47 -43 0
-128 51 0
-128 -65 0
-128 -2 0
-128 -75 0
-128 95 0
-128 18 0
-128 -64 0
-128 49 0
-128 47 0
-128 92 0
128 -51 65 2 75 -95 -18 64 -49 -47 -92 0
-129 -6 0
-129 54 0
-129 97 0
-129 -55 0
-129 -30 0
-129 -60 0
-129 -75 0
-129 3 0
-129 -36 0
-129 92 0
129 6 -54 -97 55 30 60 75 -3 36 -92 0
-130 64 0
-130 47 0
-130 70 0
-130 -77 0
-130 93 0
-130 88 0
-130 72 0
-130 -22 0
-130 85 0
-130 -38 0
130 -64 -47 -70 77 -93 -88 -72 22 -85 38 0
121 122 123 124 125 126 127 128 129 130 0
-131 -44 0
-131 70 0
-131 -78 0
-131 -12 0
-131 -18 0
-131 -33 0
-131 -11 0
-131 -43 0
-131 42 0
-131 -4 0
131 44 -70 78 12 18 33 11 43 -42 4 0
-132 56 0
-132 -78 0
-132 58 0
-132 51 0
-132 48 0
-132 -84 0
-132 47 0
-132 -10 0
-132 16 0
-132 -4 0
132 -56 78 -58 -51 -48 84 -47 10 -16 4 0
-133 97 0
-133 -11 0
-133 34 0
-133 23 0
-133 -54 0
-133 -24 0
-133 1 0
-133 85 0
-133 70 0
-133 -37 0
133 -97 11 -34 -23 54 24 -1 -85 -70 37 0
-134 2 0
-134 56 0
-134 -44 0
-134 17 0
-134 -12 0
-134 22 0
-134 -50 0
-134 74 0
-134 84 0
-134 -31 0
134 -2 -56 44 -17 12 -22 50 -74 -84 31 0
-135 -53 0
-135 11 0
-135 73 0
-135 100 0
-135 -66 0
-135 93 0
-135 -13 0
-135 -21 0
-135 45 0
-135 35 0
135 53 -11 -73 -100 66 -93 13 21 -45 -35 0
-136 66 0
-136 -83 0
-136 -78 0
-136 71 0
-136 77 0
-136 55 0
-136 -43 0
-136 88 0
-136 -9 0
-136 92 0
136 -66 83 78 -71 -77 -55 43 -88 9 -92 0
-137 43 0
-137 70 0
-137 5 0
-137 40 0
-137 49 0
-137 -75 0
-137 57 0
-137 -20 0
-137 -76 0
-137 1 0
137 -43 -70 -5 -40 -49 75 -57 20 76 -1 0
-138 44 0
-138 54 0
-138 -80 0
-138 -5 0
-138 61 0
-138 -42 0
-138 71 0
-138 -81 0
-138 9 0
-138 -69 0
138 -44 -54 80 5 -61 42 -71 81 -9 69 0
-139 -53 0
-139 81 0
-139 -7 0
-139 35 0
-139 -41 0
-139 46 0
-139 87 0
-139 58 0
-139 4 0
-139 6 0
139 53 -81 7 -35 41 -46 -87 -58 -4 -6 0
-140 -81 0
-140 52 0
-140 -40 0
-140 -29 0
-140 -98 0
-140 1 0
-140 -71 0
-140 50 0
-140 62 0
-140 2 0
140 81 -52 40 29 98 -1 71 -50 -62 -2 0
131 132 133 134 135 136 137 138 139 140 0
-141 -57 0
-141 -62 0
-141 -16 0
-141 76 0
-141 -52 0
-141 17 0
-141 -74 0
-141 -43 0
-141 -82 0
-141 -5 0
141 57 62 16 -76 52 -17 74 43 82 5 0
-142 -38 0
-142 32 0
-142 -48 0
-142 -98 0
-142 28 0
-142 76 0
-142 57 0
-142 -35 0
-142 100 0
-142 -18 0
142 38 -32 48 98 -28 -76 -57 35 -100 18 0
-143 15 0
-143 -92 0
-143 20 0
-143 62 0
-143 -1 0
-143 17 0
-143 -85 0
-143 -5 0
-143 76 0
-143 33 0
143 -15 92 -20 -62 1 -17 85 5 -76 -33 0
-144 81 0
-144 -42 0
-144 45 0
-144 -79 0
-144 71 0
-144 84 0
-144 -17 0
-144 4 0
-144 80 0
-144 -21 0
144 -81 42 -45 79 -71 -84 17 -4 -80 21 0
-145 -56 0
-145 94 0
-145 -47 0
-145 -32 0
-145 81 0
-145 49 0
-145 86 0
-145 87 0
-145 91 0
-145 70 0
145 56 -94 47 32 -81 -49 -86 -87 -91 -70 0
-146 31 0
-146 56 0
-146 9 0
-146 -19 0
-146 -75 0
-146 68 0
-146 74 0
-146 -64 0
-146 -53 0
-146 83 0
146 -31 -56 -9 19 75 -68 -74 64 53 -83 0
-147 69 0
-147 20 0
-147 -28 0
-147 -25 0
-147 15 0
-147 -27 0
-147 76 0
-147 44 0
-147 95 0
-147 -37 0
147 -69 -20 28 25 -15 27 -76 -44 -95 37 0
-148 -37 0
-148 39 0
-148 -36 0
-148 -82 0
-148 20 0
-148 24 0
-148 78 0
-148 31 0
-148 -90 0
-148 46 0
148 37 -39 36 82 -20 -24 -78 -31 90 -46 0
-149 -55 0
-149 -39 0
-149 28 0
-149 30 0
-149 -23 0
-149 43 0
-149 -73 0
-149 62 0
-149 65 0
-149 24 0
149 55 39 -28 -30 23 -43 73 -62 -65 -24 0
-150 89 0
-150 49 0
-150 -15 0
-150 -85 0
-150 -90 0
-150 -32 0
-150 -1 0
-150 97 0
-150 25 0
-150 76 0
150 -89 -49 15 85 90 32 1 -97 -25 -76 0
141 142 143 144 145 146 147 148 149 150 0
-151 4 0
-151 18 0
-151 -9 0
-151 57 0
-151 -96 0
-151 100 0
-151 -23 0
-151 73 0
-151 28 0
-151 86 0
151 -4 -18 9 -57 96 -100 23 -73 -28 -86 0
-152 51 0
-152 12 0
-152 63 0
-152 9 0
-152 70 0
-152 49 0
-152 48 0
-152 20 0
-152 58 0
-152 14 0
152 -51 -12 -63 -9 -70 -49 -48 -20 -58 -14 0
-153 3 0
-153 59 0
-153 84 0
-153 -78 0
-153 46 0
-153 -60 0
-153 28 0
-153 -31 0
-153 1 0
-153 -65 0
153 -3 -59 -84 78 -46 60 -28 31 -1 65 0
-154 39 0
-154 80 0
-154 2 0
-154 7 0
-154 52 0
-154 18 0
-154 45 0
-154 49 0
-154 27 0
-154 51 0
154 -39 -80 -2 -7 -52 -18 -45 -49 -27 -51 0
-155 -16 0
-155 38 0
-155 85 0
-155 -14 0
-155 15 0
-155 -26 0
-155 -33 0
-155 -48 0
-155 28 0
-155 -89 0
155 16 -38 -85 14 -15 26 33 48 -28 89 0
-156 -32 0
-156 -98 0
-156 100 0
-156 -50 0
-156 26 0
-156 -8 0
-156 92 0
-156 -41 0
-156 -58 0
-156 -75 0
156 32 98 -100 50 -26 8 -92 41 58 75 0
-157 45 0
-157 1 0
-157 -73 0
-157 50 0
-157 -20 0
-157 -74 0
-157 -10 0
-157 28 0
-157 58 0
-157 -95 0
157 -45 -1 73 -50 20 74 10 -28 -58 95 0
-158 -75 0
-158 -64 0
-158 65 0
-158 -96 0
-158 6 0
-158 -44 0
-158 36 0
-158 -69 0
-158 -21 0
-158 -35 0
158 75 64 -65 96 -6 44 -36 69 21 35 0
-159 78 0
-159 97 0
-159 -54 0
-159 -50 0
-159 86 0
-159 -27 0
-159 -19 0
-159 -65 0
-159 -40 0
-159 -36 0
159 -78 -97 54 50 -86 27 19 65 40 36 0
-160 -82 0
-160 91 0
-160 55 0
-160 11 0
-160 85 0
-160 -37 0
-160 92 0
-160 -95 0
-160 -15 0
-160 78 0
160 82 -91 -55 -11 -85 37 -92 95 15 -78 0
151 152 153 154 155 156 157 158 159 160 0
-161 -40 0
-161 19 0
-161 78 0
-161 -89 0
-161 -4 0
-161 -92 0
-161 -12 0
-161 -32 0
-161 97 0
-161 94 0
161 40 -19 -78 89 4 92 12 32 -97 -94 0
-162 77 0
-162 93 0
-162 -23 0
-162 -100 0
-162 58 0
-162 -1 0
-162 -33 0
-162 25 0
-162 51 0
-162 -71 0
162 -77 -93 23 100 -58 1 33 -25 -51 71 0
-163 31 0
-163 -40 0
-163 -16 0
-163 97 0
-163 26 0
-163 79 0
-163 64 0
-163 -99 0
-163 47 0
-163 -71 0
163 -31 40 16 -97 -26 -79 -64 99 -47 71 0
-164 -17 0
-164 -97 0
-164 8 0
-164 55 0
-164 66 0
-164 -37 0
-164 24 0
-164 -90 0
-164 -23 0
-164 34 0
164 17 97 -8 -55 -66 37 -24 90 23 -34 0
-165 -79 0
-165 29 0
-165 -87 0
-165 -78 0
-165 -59 0
-165 -10 0
-165 -45 0
-165 -20 0
-165 -43 0
-165 71 0
165 79 -29 87 78 59 10 45 20 43 -71 0
-166 -70 0
-166 94 0
-166 -52 0
-166 76 0
-166 40 0
-166 -23 0
-166 -47 0
-166 -60 0
-166 30 0
-166 -69 0
166 70 -94 52 -76 -40 23 47 60 -30 69 0
-167 35 0
-167 -36 0
-167 30 0
-167 48 0
-167 -96 0
-167 -61 0
-167 -85 0
-167 33 0
-167 42 0
-167 -14 0
167 -35 36 -30 -48 96 61 85 -33 -42 14 0
-168 81 0
-168 -36 0
-168 -10 0
-168 -15 0
-168 97 0
-168 30 0
-168 -64 0
-168 -3 0
-168 -95 0
-168 -99 0
168 -81 36 10 15 -97 -30 64 3 95 99 0
-169 -71 0
-169 54 0
-169 97 0
-169 -12 0
-169 58 0
-169 -31 0
-169 84 0
-169 -37 0
-169 88 0
-169 19 0
169 71 -54 -97 12 -58 31 -84 37 -88 -19 0
-170 8 0
-170 96 0
-170 89 0
-170 -67 0
-170 -41 0
-170 -28 0
-170 26 0
-170 -97 0
-170 -79 0
-170 -46 0
170 -8 -96 -89 67 41 28 -26 97 79 46 0
161 162 163 164 165 166 167 168 169 170 0
-171 -49 0
-171 -54 0
-171 -86 0
-171 -1 0
-171 -78 0
-171 27 0
-171 14 0
-171 -84 0
-171 45 0
-171 99 0
171 49 54 86 1 78 -27 -14 84 -45 -99 0
-172 -49 0
-172 -94 0
-172 5 0
-172 36 0
-172 18 0
-172 89 0
-172 81 0
-172 -34 0
-172 38 0
-172 21 0
172 49 94 -5 -36 -18 -89 -81 34 -38 -21 0
-173 39 0
-173 -90 0
-173 -69 0
-173 88 0
-173 72 0
-173 -13 0
-173 -67 0
-173 -100 0
-173 -98 0
-173 -9 0
173 -39 90 69 -88 -72 13 67 100 98 9 0
-174 -64 0
-174 52 0
-174 89 0
-174 72 0
-174 -76 0
-174 -79 0
-174 98 0
-174 -74 0
-174 46 0
-174 -83 0
174 64 -52 -89 -72 76 79 -98 74 -46 83 0
-175 -58 0
-175 23 0
-175 65 0
-175 -67 0
-175 99 0
-175 46 0
-175 -97 0
-175 16 0
-175 37 0
-175 -15 0
175 58 -23 -65 67 -99 -46 97 -16 -37 15 0
-176 14 0
-176 -27 0
-176 62 0
-176 41 0
-176 65 0
-176 -69 0
-176 -90 0
-176 4 0
-176 -57 0
-176 -21 0
176 -14 27 -62 -41 -65 69 90 -4 57 21 0
-177 91 0
-177 -60 0
-177 -75 0
-177 -85 0
-177 -46 0
-177 -52 0
-177 93 0
-177 89 0
-177 -8 0
-177 -67 0
177 -91 60 75 85 46 52 -93 -89 8 67 0
-178 -66 0
-178 -42 0
-178 -77 0
-178 57 0
-178 -11 0
-178 -4 0
-178 -35 0
-178 -75 0
-178 -40 0
-178 63 0
178 66 42 77 -57 11 4 35 75 40 -63 0
-179 83 0
-179 82 0
-179 -37 0
-179 -93 0
-179 -14 0
-179 -87 0
-179 53 0
-179 -34 0
-179 -61 0
-179 62 0
179 -83 -82 37 93 14 87 -53 34 61 -62 0
-180 97 0
-180 42 0
-180 -94 0
-180 -6 0
-180 65 0
-180 71 0
-180 52 0
-180 66 0
-180 25 0
-180 -55 0
180 -97 -42 94 6 -65 -71 -52 -66 -25 55 0
171 172 173 174 175 176 177 178 179 180 0
-181 -23 0
-181 56 0
-181 34 0
-181 -91 0
-181 9 0
-181 -87 0
-181 -60 0
-181 -27 0
-181 -8 0
-181 74 0
181 23 -56 -34 91 -9 87 60 27 8 -74 0
-182 -89 0
-182 50 0
-182 73 0
-182 71 0
-182 15 0
-182 30 0
-182 -9 0
-182 35 0
-182 -36 0
-182 -82 0
182 89 -50 -73 -71 -15 -30 9 -35 36 82 0
-183 74 0
-183 -71 0
-183 19 0
-183 -73 0
-183 -91 0
-183 34 0
-183 -3 0
-183 18 0
-183 36 0
-183 48 0
183 -74 71 -19 73 91 -34 3 -18 -36 -48 0
-184 15 0
-184 58 0
-184 48 0
-184 4 0
-184 88 0
-184 24 0
-184 -49 0
-184 18 0
-184 12 0
-184 -20 0
184 -15 -58 -48 -4 -88 -24 49 -18 -12 20 0
-185 18 0
-185 85 0
-185 9 0
-185 -42 0
-185 -88 0
-185 -43 0
-185 50 0
-185 -56 0
-185 -16 0
-185 -63 0
185 -18 -85 -9 42 88 43 -50 56 16 63 0
-186 -65 0
-186 29 0
-186 -14 0
-186 93 0
-186 -55 0
-186 34 0
-186 89 0
-186 -94 0
-186 96 0
-186 40 0
186 65 -29 14 -93 55 -34 -89 94 -96 -40 0
-187 -60 0
-187 -71 0
-187 -87 0
-187 -24 0
-187 9 0
-187 37 0
-187 13 0
-187 93 0
-187 -50 0
-187 -88 0
187 60 71 87 24 -9 -37 -13 -93 50 88 0
-188 -22 0
-188 -13 0
-188 -78 0
-188 83 0
-188 85 0
-188 91 0
-188 40 0
-188 -65 0
-188 -32 0
-188 -98 0
188 22 13 78 -83 -85 -91 -40 65 32 98 0
-189 12 0
-189 -6 0
-189 50 0
-189 -28 0
-189 7 0
-189 -34 0
-189 55 0
-189 71 0
-189 99 0
-189 -48 0
189 -12 6 -50 28 -7 34 -55 -71 -99 48 0
-190 83 0
-190 -12 0
-190 16 0
-190 68 0
-190 -35 0
-190 -89 0
-190 -20 0
-190 45 0
-190 41 0
-190 -30 0
190 -83 12 -16 -68 35 89 20 -45 -41 30 0
181 182 183 184 185 186 187 188 189 190 0
-191 96 0
-191 49 0
-191 4 0
-191 92 0
-191 37 0
-191 51 0
-191 -16 0
-191 -38 0
-191 88 0
-191 -91 0
191 -96 -49 -4 -92 -37 -51 16 38 -88 91 0
-192 -88 0
-192 15 0
-192 53 0
-192 48 0
-192 -30 0
-192 -28 0
-192 -13 0
-192 -90 0
-192 80 0
-192 6 0
192 88 -15 -53 -48 30 28 13 90 -80 -6 0
-193 -57 0
-193 -83 0
-193 -52 0
-193 -65 0
-193 75 0
-193 -22 0
-193 -25 0
-193 34 0
-193 44 0
-193 -10 0
193 57 83 52 65 -75 22 25 -34 -44 10 0
-194 28 0
-194 -53 0
-194 -8 0
-194 2 0
-194 79 0
-194 63 0
-194 -17 0
-194 -88 0
-194 -77 0
-194 -21 0
194 -28 53 8 -2 -79 -63 17 88 77 21 0
-195 55 0
-195 13 0
-195 23 0
-195 75 0
-195 96 0
-195 -91 0
-195 -84 0
-195 -33 0
-195 69 0
-195 50 0
195 -55 -13 -23 -75 -96 91 84 33 -69 -50 0
-196 -93 0
-196 45 0
-196 -67 0
-196 78 0
-196 29 0
-196 14 0
-196 51 0
-196 -39 0
-196 -37 0
-196 54 0
196 93 -45 67 -78 -29 -14 -51 39 37 -54 0
-197 30 0
-197 2 0
-197 57 0
-197 -88 0
-197 -25 0
-197 -94 0
-197 73 0
-197 42 0
-197 -9 0
-197 -84 0
197 -30 -2 -57 88 25 94 -73 -42 9 84 0
-198 -81 0
-198 -100 0
-198 -47 0
-198 -41 0
-198 13 0
-198 63 0
-198 -5 0
-198 -84 0
-198 93 0
-198 50 0
198 81 100 47 41 -13 -63 5 84 -93 -50 0
-199 86 0
-199 21 0
-199 85 0
-199 -28 0
-199 98 0
-199 -10 0
-199 -37 0
-199 3 0
-199 71 0
-199 -66 0
199 -86 -21 -85 28 -98 10 37 -3 -71 66 0
-200 -9 0
-200 -26 0
-200 -5 0
-200 -84 0
-200 18 0
-200 76 0
-200 82 0
-200 100 0
-200 -63 0
-200 65 0
200 9 26 5 84 -18 -76 -82 -100 63 -65 0
191 192 193 194 195 196 197 198 199 200 0
